************************************************************************
file with basedata            : mm36_.bas
initial value random generator: 1256928323
************************************************************************
projects                      :  1
jobs (incl. supersource/sink ):  12
horizon                       :  84
RESOURCES
  - renewable                 :  2   R
  - nonrenewable              :  2   N
  - doubly constrained        :  0   D
************************************************************************
PROJECT INFORMATION:
pronr.  #jobs rel.date duedate tardcost  MPM-Time
    1     10      0       19        4       19
************************************************************************
PRECEDENCE RELATIONS:
jobnr.    #modes  #successors   successors
   0        1          3           1   2   3
   1        3          3           4   5   8
   2        3          2           7   8
   3        3          1           5
   4        3          1           6
   5        3          2           6   7
   6        3          1           9
   7        3          2           9  10
   8        3          1          11
   9        3          1          11
  10        3          1          11
  11        1          0        
************************************************************************
REQUESTS/DURATIONS:
jobnr. mode duration  R 1  R 2  R 3  R 4  E(W 1)  E(W 2)  E(W 3)
------------------------------------------------------------------------
  0      1     0       0    0    0    0     0       0       0
  1      1     2       7    6    9    0    26      18       0
  2      1     5       7    5    0   10    60       0      50
  3      1     3       7    6    0    4    39       0      12
  4      1     6       5    6    0    8    66       0      48
  5      1     7       9    9    0    6    126       0      42
  6      1     7       9    2    0   10    77       0      70
  7      1     2      10    7    8    0    34      16       0
  8      1     3       9    7    0    7    48       0      21
  9      1     2       9    7    0   10    32       0      20
 10      1     3       8    3    0    6    33       0      18
 11      1     0       0    0    0    0     0       0       0
************************************************************************
RESOURCEAVAILABILITIES:
  R 1  R 2  R 3
   23   50   72
************************************************************************
RESOURCE LIMITS:
jobnr.  l(R 1)  u(R 1)  l(R 2)  u(R 2)  l(R 3)  u(R 3)
------------------------------------------------------------------------
  0        0       0       0       0       0       0
  1        7      13       5       9       0       0
  2        7      12       0       0       5      10
  3        7      13       0       0       2       4
  4        6      11       0       0       4       8
  5       10      18       0       0       3       6
  6        6      11       0       0       5      10
  7        9      17       4       8       0       0
  8        9      16       0       0       4       7
  9        9      16       0       0       5      10
 10        6      11       0       0       3       6
 11        0       0       0       0       0       0
************************************************************************
SCENARIOS:
------------------------------------------------------------------------
RESOURCE k = 1
s = 1: (0, 42, 75, 46, 93, 80, 62, 47, 46, 24, 23, 0)
s = 2: (0, 25, 50, 26, 40, 118, 65, 54, 35, 29, 37, 0)
s = 3: (0, 29, 66, 32, 74, 82, 56, 26, 42, 60, 39, 0)
s = 4: (0, 39, 48, 52, 68, 85, 58, 51, 46, 46, 30, 0)
s = 5: (0, 18, 73, 38, 43, 182, 70, 41, 52, 40, 39, 0)
s = 6: (0, 19, 65, 24, 97, 125, 64, 25, 46, 38, 23, 0)
s = 7: (0, 27, 48, 40, 53, 102, 63, 23, 55, 25, 26, 0)
s = 8: (0, 34, 56, 51, 60, 169, 113, 20, 42, 54, 29, 0)
s = 9: (0, 26, 85, 34, 91, 200, 85, 45, 35, 41, 27, 0)
s = 10: (0, 23, 72, 43, 52, 188, 40, 30, 50, 32, 25, 0)
s = 11: (0, 37, 38, 48, 69, 168, 73, 25, 55, 36, 21, 0)
s = 12: (0, 45, 85, 52, 91, 164, 73, 32, 54, 40, 41, 0)
s = 13: (0, 19, 52, 51, 96, 183, 107, 39, 61, 21, 25, 0)
s = 14: (0, 24, 53, 40, 60, 126, 46, 39, 48, 32, 32, 0)
s = 15: (0, 34, 32, 42, 58, 103, 46, 36, 42, 29, 20, 0)
s = 16: (0, 40, 61, 41, 58, 103, 86, 32, 42, 36, 42, 0)
s = 17: (0, 16, 43, 41, 72, 96, 64, 20, 66, 37, 29, 0)
s = 18: (0, 17, 58, 29, 59, 109, 56, 34, 57, 38, 50, 0)
s = 19: (0, 18, 64, 48, 59, 141, 55, 53, 41, 34, 33, 0)
s = 20: (0, 43, 77, 57, 72, 112, 100, 49, 53, 43, 28, 0)
s = 21: (0, 26, 45, 26, 77, 148, 44, 19, 68, 29, 53, 0)
s = 22: (0, 29, 67, 28, 74, 149, 60, 24, 53, 31, 43, 0)
s = 23: (0, 20, 65, 43, 94, 71, 76, 43, 39, 20, 43, 0)
s = 24: (0, 38, 57, 37, 48, 135, 115, 28, 40, 20, 28, 0)
s = 25: (0, 31, 74, 43, 102, 128, 82, 34, 44, 47, 35, 0)
s = 26: (0, 26, 32, 22, 58, 117, 62, 34, 83, 39, 28, 0)
s = 27: (0, 31, 81, 43, 49, 125, 65, 31, 48, 28, 34, 0)
s = 28: (0, 24, 39, 31, 53, 173, 96, 35, 37, 36, 40, 0)
s = 29: (0, 31, 39, 25, 62, 110, 61, 31, 34, 32, 29, 0)
s = 30: (0, 24, 55, 40, 59, 79, 63, 31, 64, 44, 45, 0)
s = 31: (0, 24, 36, 28, 60, 142, 41, 24, 66, 23, 27, 0)
s = 32: (0, 37, 59, 40, 90, 169, 68, 21, 61, 20, 37, 0)
s = 33: (0, 21, 85, 34, 56, 124, 69, 28, 56, 43, 24, 0)
s = 34: (0, 18, 91, 38, 59, 85, 83, 48, 43, 24, 28, 0)
s = 35: (0, 29, 41, 37, 60, 244, 78, 53, 26, 29, 33, 0)
s = 36: (0, 22, 83, 36, 57, 105, 61, 25, 82, 27, 31, 0)
s = 37: (0, 29, 73, 33, 59, 93, 83, 32, 55, 27, 40, 0)
s = 38: (0, 36, 62, 38, 40, 114, 85, 39, 55, 20, 46, 0)
s = 39: (0, 22, 67, 32, 55, 102, 48, 29, 59, 37, 29, 0)
s = 40: (0, 36, 37, 47, 52, 111, 102, 26, 31, 39, 40, 0)
s = 41: (0, 22, 55, 26, 80, 122, 86, 27, 49, 30, 30, 0)
s = 42: (0, 26, 76, 43, 89, 133, 88, 30, 30, 28, 43, 0)
s = 43: (0, 29, 56, 42, 85, 98, 90, 52, 65, 44, 29, 0)
s = 44: (0, 22, 47, 47, 56, 130, 90, 24, 52, 19, 53, 0)
s = 45: (0, 32, 71, 45, 90, 81, 54, 24, 47, 23, 31, 0)
s = 46: (0, 20, 74, 31, 55, 105, 70, 31, 43, 23, 30, 0)
s = 47: (0, 21, 72, 49, 59, 84, 92, 24, 41, 37, 52, 0)
s = 48: (0, 18, 55, 45, 43, 177, 145, 35, 36, 43, 21, 0)
s = 49: (0, 29, 41, 24, 61, 122, 90, 40, 47, 32, 36, 0)
s = 50: (0, 19, 76, 42, 64, 121, 54, 49, 75, 42, 39, 0)
s = 51: (0, 23, 42, 46, 36, 121, 101, 34, 39, 29, 54, 0)
s = 52: (0, 29, 57, 26, 51, 133, 70, 19, 48, 39, 50, 0)
s = 53: (0, 29, 53, 40, 75, 106, 63, 38, 46, 26, 19, 0)
s = 54: (0, 26, 57, 38, 88, 134, 91, 32, 70, 21, 35, 0)
s = 55: (0, 37, 44, 53, 82, 115, 52, 53, 45, 33, 37, 0)
s = 56: (0, 20, 66, 52, 53, 100, 87, 25, 41, 35, 34, 0)
s = 57: (0, 33, 87, 29, 60, 84, 55, 31, 55, 30, 20, 0)
s = 58: (0, 20, 99, 43, 103, 80, 97, 44, 29, 33, 31, 0)
s = 59: (0, 23, 49, 24, 48, 145, 57, 25, 45, 41, 27, 0)
s = 60: (0, 20, 34, 47, 58, 120, 60, 48, 65, 36, 19, 0)
s = 61: (0, 24, 45, 34, 83, 67, 60, 41, 27, 30, 45, 0)
s = 62: (0, 30, 53, 31, 99, 187, 77, 30, 59, 21, 33, 0)
s = 63: (0, 20, 72, 58, 36, 76, 105, 33, 45, 28, 35, 0)
s = 64: (0, 37, 62, 32, 59, 111, 91, 21, 26, 27, 42, 0)
s = 65: (0, 30, 63, 28, 69, 98, 145, 26, 43, 31, 60, 0)
s = 66: (0, 26, 74, 45, 65, 86, 77, 29, 57, 28, 37, 0)
s = 67: (0, 16, 44, 46, 91, 128, 94, 26, 79, 23, 30, 0)
s = 68: (0, 34, 56, 32, 67, 89, 131, 30, 51, 36, 32, 0)
s = 69: (0, 17, 62, 23, 83, 100, 67, 21, 48, 42, 44, 0)
s = 70: (0, 27, 64, 47, 53, 186, 93, 27, 41, 51, 38, 0)
s = 71: (0, 26, 60, 27, 115, 221, 48, 35, 27, 32, 38, 0)
s = 72: (0, 20, 69, 52, 64, 80, 56, 43, 26, 21, 30, 0)
s = 73: (0, 27, 47, 55, 69, 133, 78, 27, 38, 38, 38, 0)
s = 74: (0, 50, 50, 33, 71, 166, 44, 20, 41, 32, 42, 0)
s = 75: (0, 36, 40, 34, 48, 128, 78, 50, 61, 29, 47, 0)
s = 76: (0, 26, 84, 66, 75, 129, 114, 25, 67, 25, 34, 0)
s = 77: (0, 18, 83, 49, 76, 107, 105, 22, 38, 25, 27, 0)
s = 78: (0, 27, 51, 51, 53, 173, 111, 25, 38, 28, 50, 0)
s = 79: (0, 25, 68, 22, 54, 132, 71, 33, 39, 27, 18, 0)
s = 80: (0, 31, 72, 38, 45, 104, 87, 27, 61, 41, 17, 0)
s = 81: (0, 14, 62, 44, 77, 201, 111, 26, 44, 37, 24, 0)
s = 82: (0, 21, 62, 27, 91, 111, 66, 28, 34, 33, 25, 0)
s = 83: (0, 44, 73, 55, 66, 117, 57, 40, 47, 28, 22, 0)
s = 84: (0, 18, 76, 27, 37, 76, 97, 43, 68, 35, 31, 0)
s = 85: (0, 20, 95, 23, 72, 133, 94, 34, 47, 28, 22, 0)
s = 86: (0, 22, 31, 30, 112, 165, 94, 38, 67, 39, 28, 0)
s = 87: (0, 43, 68, 33, 60, 142, 69, 47, 31, 49, 29, 0)
s = 88: (0, 16, 60, 39, 69, 96, 82, 28, 44, 27, 42, 0)
s = 89: (0, 19, 77, 54, 35, 144, 62, 48, 68, 33, 44, 0)
s = 90: (0, 19, 46, 31, 38, 77, 61, 35, 34, 50, 33, 0)
s = 91: (0, 43, 36, 36, 90, 118, 45, 25, 60, 25, 33, 0)
s = 92: (0, 20, 53, 39, 86, 104, 86, 23, 31, 28, 47, 0)
s = 93: (0, 18, 68, 33, 81, 82, 82, 45, 33, 32, 26, 0)
s = 94: (0, 42, 87, 30, 41, 159, 48, 25, 49, 42, 40, 0)
s = 95: (0, 23, 60, 53, 113, 141, 71, 51, 84, 40, 32, 0)
s = 96: (0, 27, 54, 29, 43, 113, 66, 32, 64, 31, 40, 0)
s = 97: (0, 19, 39, 44, 41, 86, 108, 33, 84, 22, 27, 0)
s = 98: (0, 17, 38, 29, 91, 151, 74, 30, 49, 32, 35, 0)
s = 99: (0, 41, 97, 24, 59, 193, 50, 38, 76, 28, 23, 0)
s = 100: (0, 23, 49, 43, 95, 111, 48, 30, 65, 40, 36, 0)
s = 101: (0, 27, 77, 26, 72, 134, 98, 50, 36, 21, 36, 0)
s = 102: (0, 22, 33, 42, 70, 102, 76, 41, 71, 19, 34, 0)
s = 103: (0, 19, 57, 26, 39, 93, 119, 27, 55, 41, 37, 0)
s = 104: (0, 16, 46, 50, 56, 99, 77, 33, 44, 24, 22, 0)
s = 105: (0, 16, 87, 52, 70, 139, 98, 23, 66, 25, 44, 0)
s = 106: (0, 16, 53, 24, 50, 152, 78, 61, 63, 33, 17, 0)
s = 107: (0, 17, 33, 65, 46, 121, 105, 24, 28, 37, 36, 0)
s = 108: (0, 31, 55, 34, 105, 151, 120, 48, 66, 33, 23, 0)
s = 109: (0, 25, 78, 36, 74, 183, 85, 45, 52, 21, 21, 0)
s = 110: (0, 29, 43, 29, 70, 96, 72, 46, 29, 27, 43, 0)
s = 111: (0, 26, 76, 38, 49, 200, 62, 36, 32, 41, 37, 0)
s = 112: (0, 24, 41, 47, 49, 169, 89, 25, 39, 23, 20, 0)
s = 113: (0, 32, 51, 47, 69, 159, 44, 37, 35, 34, 40, 0)
s = 114: (0, 17, 37, 35, 47, 83, 89, 48, 42, 38, 36, 0)
s = 115: (0, 39, 39, 24, 49, 98, 47, 29, 47, 20, 32, 0)
s = 116: (0, 44, 76, 34, 37, 126, 88, 33, 43, 36, 36, 0)
s = 117: (0, 18, 43, 21, 73, 133, 68, 30, 43, 24, 24, 0)
s = 118: (0, 33, 73, 42, 38, 190, 65, 39, 47, 35, 23, 0)
s = 119: (0, 33, 63, 37, 72, 142, 71, 20, 63, 42, 17, 0)
s = 120: (0, 22, 56, 49, 110, 97, 114, 31, 50, 39, 26, 0)
s = 121: (0, 33, 51, 22, 45, 114, 102, 57, 47, 29, 32, 0)
s = 122: (0, 44, 67, 47, 65, 144, 58, 31, 73, 24, 35, 0)
s = 123: (0, 21, 81, 33, 87, 144, 104, 23, 64, 43, 40, 0)
s = 124: (0, 26, 57, 47, 40, 86, 56, 36, 34, 36, 37, 0)
s = 125: (0, 48, 42, 50, 61, 152, 93, 40, 65, 27, 40, 0)
s = 126: (0, 20, 37, 54, 86, 120, 56, 36, 41, 24, 39, 0)
s = 127: (0, 26, 77, 25, 52, 117, 76, 45, 56, 36, 25, 0)
s = 128: (0, 27, 65, 24, 69, 155, 56, 24, 44, 26, 37, 0)
s = 129: (0, 32, 36, 42, 45, 112, 101, 45, 56, 38, 39, 0)
s = 130: (0, 50, 56, 79, 115, 98, 87, 25, 35, 42, 19, 0)
s = 131: (0, 18, 49, 49, 50, 136, 69, 52, 56, 31, 37, 0)
s = 132: (0, 24, 64, 52, 55, 165, 78, 25, 67, 28, 30, 0)
s = 133: (0, 20, 33, 31, 101, 132, 139, 23, 32, 26, 33, 0)
s = 134: (0, 17, 51, 66, 47, 129, 57, 28, 42, 38, 19, 0)
s = 135: (0, 16, 45, 27, 66, 119, 55, 19, 39, 27, 29, 0)
s = 136: (0, 30, 55, 38, 72, 89, 57, 47, 65, 23, 33, 0)
s = 137: (0, 40, 39, 22, 82, 89, 124, 31, 64, 24, 33, 0)
s = 138: (0, 24, 65, 58, 63, 96, 92, 26, 39, 51, 27, 0)
s = 139: (0, 34, 73, 38, 49, 117, 110, 38, 38, 32, 30, 0)
s = 140: (0, 14, 66, 35, 43, 96, 65, 28, 30, 33, 34, 0)
s = 141: (0, 41, 33, 24, 92, 124, 76, 26, 45, 29, 25, 0)
s = 142: (0, 20, 75, 37, 41, 97, 41, 30, 32, 29, 40, 0)
s = 143: (0, 34, 91, 54, 81, 137, 86, 36, 38, 18, 33, 0)
s = 144: (0, 52, 50, 45, 84, 103, 45, 26, 56, 19, 34, 0)
s = 145: (0, 19, 33, 32, 57, 153, 45, 34, 62, 39, 23, 0)
s = 146: (0, 28, 54, 31, 63, 147, 70, 30, 45, 32, 19, 0)
s = 147: (0, 27, 63, 31, 107, 160, 99, 28, 53, 35, 34, 0)
s = 148: (0, 20, 42, 51, 68, 87, 97, 29, 36, 25, 35, 0)
s = 149: (0, 16, 72, 53, 47, 90, 46, 35, 39, 32, 31, 0)
s = 150: (0, 41, 81, 64, 40, 124, 54, 44, 52, 29, 56, 0)
s = 151: (0, 30, 78, 43, 64, 88, 90, 44, 63, 27, 34, 0)
s = 152: (0, 27, 45, 29, 42, 100, 51, 19, 62, 31, 24, 0)
s = 153: (0, 24, 72, 29, 60, 67, 57, 25, 51, 32, 35, 0)
s = 154: (0, 28, 70, 48, 47, 138, 72, 40, 28, 24, 29, 0)
s = 155: (0, 22, 45, 34, 48, 139, 86, 27, 44, 25, 45, 0)
s = 156: (0, 34, 56, 42, 44, 94, 115, 38, 51, 33, 28, 0)
s = 157: (0, 23, 50, 27, 73, 156, 60, 36, 34, 41, 24, 0)
s = 158: (0, 16, 60, 36, 39, 172, 64, 23, 56, 23, 26, 0)
s = 159: (0, 19, 67, 53, 43, 88, 128, 49, 67, 30, 37, 0)
s = 160: (0, 18, 46, 41, 56, 144, 72, 43, 51, 39, 42, 0)
s = 161: (0, 43, 51, 59, 44, 118, 75, 27, 27, 28, 39, 0)
s = 162: (0, 34, 95, 51, 78, 100, 88, 28, 50, 28, 35, 0)
s = 163: (0, 33, 93, 38, 107, 164, 119, 33, 49, 25, 30, 0)
s = 164: (0, 34, 34, 37, 37, 168, 81, 42, 37, 23, 25, 0)
s = 165: (0, 32, 64, 62, 58, 89, 71, 36, 41, 48, 22, 0)
s = 166: (0, 24, 67, 56, 64, 100, 59, 34, 50, 36, 49, 0)
s = 167: (0, 31, 107, 65, 63, 162, 60, 40, 79, 37, 45, 0)
s = 168: (0, 19, 41, 43, 73, 129, 92, 34, 53, 47, 39, 0)
s = 169: (0, 40, 43, 22, 78, 114, 70, 51, 50, 23, 30, 0)
s = 170: (0, 15, 47, 36, 50, 71, 61, 29, 37, 22, 48, 0)
s = 171: (0, 16, 59, 31, 68, 114, 78, 23, 46, 50, 38, 0)
s = 172: (0, 30, 90, 30, 70, 150, 90, 45, 57, 26, 27, 0)
s = 173: (0, 24, 47, 30, 62, 75, 106, 46, 48, 39, 39, 0)
s = 174: (0, 27, 57, 46, 55, 139, 108, 39, 50, 45, 42, 0)
s = 175: (0, 27, 31, 24, 44, 166, 87, 22, 39, 32, 25, 0)
s = 176: (0, 42, 59, 60, 47, 90, 80, 29, 42, 50, 31, 0)
s = 177: (0, 18, 49, 56, 79, 194, 84, 30, 40, 35, 34, 0)
s = 178: (0, 17, 46, 32, 69, 81, 101, 38, 44, 33, 24, 0)
s = 179: (0, 30, 46, 41, 79, 95, 77, 37, 63, 32, 24, 0)
s = 180: (0, 23, 74, 30, 53, 105, 68, 24, 54, 22, 25, 0)
s = 181: (0, 31, 53, 39, 71, 84, 108, 37, 59, 23, 46, 0)
s = 182: (0, 17, 52, 70, 56, 97, 109, 29, 32, 23, 23, 0)
s = 183: (0, 21, 39, 41, 98, 121, 82, 24, 36, 32, 32, 0)
s = 184: (0, 17, 50, 30, 107, 74, 42, 30, 52, 25, 22, 0)
s = 185: (0, 36, 57, 34, 63, 126, 60, 42, 87, 23, 35, 0)
s = 186: (0, 15, 56, 53, 54, 99, 111, 39, 55, 18, 42, 0)
s = 187: (0, 43, 57, 31, 44, 103, 72, 33, 48, 22, 24, 0)
s = 188: (0, 22, 33, 60, 62, 139, 71, 20, 35, 41, 23, 0)
s = 189: (0, 26, 50, 37, 61, 118, 97, 24, 48, 42, 43, 0)
s = 190: (0, 18, 61, 64, 45, 127, 67, 22, 69, 27, 28, 0)
s = 191: (0, 34, 61, 33, 45, 112, 99, 25, 39, 23, 32, 0)
s = 192: (0, 29, 57, 55, 58, 189, 123, 30, 38, 35, 36, 0)
s = 193: (0, 24, 42, 57, 46, 124, 62, 20, 50, 26, 46, 0)
s = 194: (0, 34, 73, 47, 59, 89, 55, 25, 36, 31, 19, 0)
s = 195: (0, 27, 58, 39, 46, 95, 48, 26, 55, 26, 25, 0)
s = 196: (0, 18, 51, 37, 70, 133, 60, 24, 57, 33, 46, 0)
s = 197: (0, 17, 53, 27, 93, 173, 102, 19, 32, 38, 20, 0)
s = 198: (0, 21, 65, 36, 93, 91, 89, 58, 25, 40, 31, 0)
s = 199: (0, 21, 52, 39, 45, 160, 128, 42, 49, 22, 36, 0)
s = 200: (0, 26, 82, 44, 55, 85, 72, 22, 46, 38, 31, 0)
------------------------------------------------------------------------
RESOURCE k = 2
s = 1: (0, 29, 0, 0, 0, 0, 0, 22, 0, 0, 0, 0)
s = 2: (0, 17, 0, 0, 0, 0, 0, 26, 0, 0, 0, 0)
s = 3: (0, 20, 0, 0, 0, 0, 0, 13, 0, 0, 0, 0)
s = 4: (0, 27, 0, 0, 0, 0, 0, 24, 0, 0, 0, 0)
s = 5: (0, 13, 0, 0, 0, 0, 0, 19, 0, 0, 0, 0)
s = 6: (0, 13, 0, 0, 0, 0, 0, 12, 0, 0, 0, 0)
s = 7: (0, 19, 0, 0, 0, 0, 0, 11, 0, 0, 0, 0)
s = 8: (0, 24, 0, 0, 0, 0, 0, 9, 0, 0, 0, 0)
s = 9: (0, 18, 0, 0, 0, 0, 0, 22, 0, 0, 0, 0)
s = 10: (0, 16, 0, 0, 0, 0, 0, 15, 0, 0, 0, 0)
s = 11: (0, 26, 0, 0, 0, 0, 0, 12, 0, 0, 0, 0)
s = 12: (0, 32, 0, 0, 0, 0, 0, 15, 0, 0, 0, 0)
s = 13: (0, 13, 0, 0, 0, 0, 0, 19, 0, 0, 0, 0)
s = 14: (0, 17, 0, 0, 0, 0, 0, 19, 0, 0, 0, 0)
s = 15: (0, 24, 0, 0, 0, 0, 0, 17, 0, 0, 0, 0)
s = 16: (0, 28, 0, 0, 0, 0, 0, 15, 0, 0, 0, 0)
s = 17: (0, 11, 0, 0, 0, 0, 0, 10, 0, 0, 0, 0)
s = 18: (0, 12, 0, 0, 0, 0, 0, 16, 0, 0, 0, 0)
s = 19: (0, 12, 0, 0, 0, 0, 0, 25, 0, 0, 0, 0)
s = 20: (0, 30, 0, 0, 0, 0, 0, 23, 0, 0, 0, 0)
s = 21: (0, 18, 0, 0, 0, 0, 0, 9, 0, 0, 0, 0)
s = 22: (0, 20, 0, 0, 0, 0, 0, 12, 0, 0, 0, 0)
s = 23: (0, 14, 0, 0, 0, 0, 0, 21, 0, 0, 0, 0)
s = 24: (0, 26, 0, 0, 0, 0, 0, 13, 0, 0, 0, 0)
s = 25: (0, 22, 0, 0, 0, 0, 0, 16, 0, 0, 0, 0)
s = 26: (0, 18, 0, 0, 0, 0, 0, 16, 0, 0, 0, 0)
s = 27: (0, 21, 0, 0, 0, 0, 0, 15, 0, 0, 0, 0)
s = 28: (0, 17, 0, 0, 0, 0, 0, 17, 0, 0, 0, 0)
s = 29: (0, 21, 0, 0, 0, 0, 0, 15, 0, 0, 0, 0)
s = 30: (0, 17, 0, 0, 0, 0, 0, 15, 0, 0, 0, 0)
s = 31: (0, 17, 0, 0, 0, 0, 0, 11, 0, 0, 0, 0)
s = 32: (0, 26, 0, 0, 0, 0, 0, 10, 0, 0, 0, 0)
s = 33: (0, 15, 0, 0, 0, 0, 0, 13, 0, 0, 0, 0)
s = 34: (0, 12, 0, 0, 0, 0, 0, 23, 0, 0, 0, 0)
s = 35: (0, 20, 0, 0, 0, 0, 0, 25, 0, 0, 0, 0)
s = 36: (0, 16, 0, 0, 0, 0, 0, 12, 0, 0, 0, 0)
s = 37: (0, 20, 0, 0, 0, 0, 0, 15, 0, 0, 0, 0)
s = 38: (0, 25, 0, 0, 0, 0, 0, 18, 0, 0, 0, 0)
s = 39: (0, 16, 0, 0, 0, 0, 0, 14, 0, 0, 0, 0)
s = 40: (0, 25, 0, 0, 0, 0, 0, 12, 0, 0, 0, 0)
s = 41: (0, 16, 0, 0, 0, 0, 0, 13, 0, 0, 0, 0)
s = 42: (0, 18, 0, 0, 0, 0, 0, 14, 0, 0, 0, 0)
s = 43: (0, 21, 0, 0, 0, 0, 0, 25, 0, 0, 0, 0)
s = 44: (0, 15, 0, 0, 0, 0, 0, 12, 0, 0, 0, 0)
s = 45: (0, 22, 0, 0, 0, 0, 0, 12, 0, 0, 0, 0)
s = 46: (0, 14, 0, 0, 0, 0, 0, 15, 0, 0, 0, 0)
s = 47: (0, 15, 0, 0, 0, 0, 0, 11, 0, 0, 0, 0)
s = 48: (0, 13, 0, 0, 0, 0, 0, 17, 0, 0, 0, 0)
s = 49: (0, 20, 0, 0, 0, 0, 0, 19, 0, 0, 0, 0)
s = 50: (0, 13, 0, 0, 0, 0, 0, 23, 0, 0, 0, 0)
s = 51: (0, 16, 0, 0, 0, 0, 0, 16, 0, 0, 0, 0)
s = 52: (0, 20, 0, 0, 0, 0, 0, 9, 0, 0, 0, 0)
s = 53: (0, 20, 0, 0, 0, 0, 0, 18, 0, 0, 0, 0)
s = 54: (0, 18, 0, 0, 0, 0, 0, 15, 0, 0, 0, 0)
s = 55: (0, 25, 0, 0, 0, 0, 0, 25, 0, 0, 0, 0)
s = 56: (0, 14, 0, 0, 0, 0, 0, 12, 0, 0, 0, 0)
s = 57: (0, 23, 0, 0, 0, 0, 0, 15, 0, 0, 0, 0)
s = 58: (0, 14, 0, 0, 0, 0, 0, 21, 0, 0, 0, 0)
s = 59: (0, 16, 0, 0, 0, 0, 0, 12, 0, 0, 0, 0)
s = 60: (0, 14, 0, 0, 0, 0, 0, 23, 0, 0, 0, 0)
s = 61: (0, 16, 0, 0, 0, 0, 0, 20, 0, 0, 0, 0)
s = 62: (0, 21, 0, 0, 0, 0, 0, 15, 0, 0, 0, 0)
s = 63: (0, 14, 0, 0, 0, 0, 0, 16, 0, 0, 0, 0)
s = 64: (0, 26, 0, 0, 0, 0, 0, 10, 0, 0, 0, 0)
s = 65: (0, 21, 0, 0, 0, 0, 0, 12, 0, 0, 0, 0)
s = 66: (0, 18, 0, 0, 0, 0, 0, 14, 0, 0, 0, 0)
s = 67: (0, 11, 0, 0, 0, 0, 0, 12, 0, 0, 0, 0)
s = 68: (0, 24, 0, 0, 0, 0, 0, 15, 0, 0, 0, 0)
s = 69: (0, 12, 0, 0, 0, 0, 0, 10, 0, 0, 0, 0)
s = 70: (0, 19, 0, 0, 0, 0, 0, 13, 0, 0, 0, 0)
s = 71: (0, 18, 0, 0, 0, 0, 0, 17, 0, 0, 0, 0)
s = 72: (0, 14, 0, 0, 0, 0, 0, 21, 0, 0, 0, 0)
s = 73: (0, 19, 0, 0, 0, 0, 0, 13, 0, 0, 0, 0)
s = 74: (0, 35, 0, 0, 0, 0, 0, 10, 0, 0, 0, 0)
s = 75: (0, 25, 0, 0, 0, 0, 0, 24, 0, 0, 0, 0)
s = 76: (0, 18, 0, 0, 0, 0, 0, 12, 0, 0, 0, 0)
s = 77: (0, 13, 0, 0, 0, 0, 0, 11, 0, 0, 0, 0)
s = 78: (0, 19, 0, 0, 0, 0, 0, 12, 0, 0, 0, 0)
s = 79: (0, 18, 0, 0, 0, 0, 0, 16, 0, 0, 0, 0)
s = 80: (0, 22, 0, 0, 0, 0, 0, 13, 0, 0, 0, 0)
s = 81: (0, 10, 0, 0, 0, 0, 0, 12, 0, 0, 0, 0)
s = 82: (0, 15, 0, 0, 0, 0, 0, 14, 0, 0, 0, 0)
s = 83: (0, 30, 0, 0, 0, 0, 0, 19, 0, 0, 0, 0)
s = 84: (0, 12, 0, 0, 0, 0, 0, 21, 0, 0, 0, 0)
s = 85: (0, 14, 0, 0, 0, 0, 0, 16, 0, 0, 0, 0)
s = 86: (0, 16, 0, 0, 0, 0, 0, 18, 0, 0, 0, 0)
s = 87: (0, 30, 0, 0, 0, 0, 0, 22, 0, 0, 0, 0)
s = 88: (0, 12, 0, 0, 0, 0, 0, 14, 0, 0, 0, 0)
s = 89: (0, 14, 0, 0, 0, 0, 0, 23, 0, 0, 0, 0)
s = 90: (0, 13, 0, 0, 0, 0, 0, 17, 0, 0, 0, 0)
s = 91: (0, 30, 0, 0, 0, 0, 0, 12, 0, 0, 0, 0)
s = 92: (0, 14, 0, 0, 0, 0, 0, 11, 0, 0, 0, 0)
s = 93: (0, 12, 0, 0, 0, 0, 0, 22, 0, 0, 0, 0)
s = 94: (0, 29, 0, 0, 0, 0, 0, 12, 0, 0, 0, 0)
s = 95: (0, 16, 0, 0, 0, 0, 0, 24, 0, 0, 0, 0)
s = 96: (0, 19, 0, 0, 0, 0, 0, 15, 0, 0, 0, 0)
s = 97: (0, 13, 0, 0, 0, 0, 0, 16, 0, 0, 0, 0)
s = 98: (0, 12, 0, 0, 0, 0, 0, 15, 0, 0, 0, 0)
s = 99: (0, 29, 0, 0, 0, 0, 0, 18, 0, 0, 0, 0)
s = 100: (0, 16, 0, 0, 0, 0, 0, 15, 0, 0, 0, 0)
s = 101: (0, 19, 0, 0, 0, 0, 0, 24, 0, 0, 0, 0)
s = 102: (0, 16, 0, 0, 0, 0, 0, 19, 0, 0, 0, 0)
s = 103: (0, 13, 0, 0, 0, 0, 0, 13, 0, 0, 0, 0)
s = 104: (0, 11, 0, 0, 0, 0, 0, 16, 0, 0, 0, 0)
s = 105: (0, 11, 0, 0, 0, 0, 0, 11, 0, 0, 0, 0)
s = 106: (0, 11, 0, 0, 0, 0, 0, 29, 0, 0, 0, 0)
s = 107: (0, 12, 0, 0, 0, 0, 0, 12, 0, 0, 0, 0)
s = 108: (0, 22, 0, 0, 0, 0, 0, 23, 0, 0, 0, 0)
s = 109: (0, 18, 0, 0, 0, 0, 0, 22, 0, 0, 0, 0)
s = 110: (0, 20, 0, 0, 0, 0, 0, 22, 0, 0, 0, 0)
s = 111: (0, 18, 0, 0, 0, 0, 0, 17, 0, 0, 0, 0)
s = 112: (0, 17, 0, 0, 0, 0, 0, 12, 0, 0, 0, 0)
s = 113: (0, 22, 0, 0, 0, 0, 0, 18, 0, 0, 0, 0)
s = 114: (0, 12, 0, 0, 0, 0, 0, 23, 0, 0, 0, 0)
s = 115: (0, 27, 0, 0, 0, 0, 0, 14, 0, 0, 0, 0)
s = 116: (0, 31, 0, 0, 0, 0, 0, 16, 0, 0, 0, 0)
s = 117: (0, 13, 0, 0, 0, 0, 0, 15, 0, 0, 0, 0)
s = 118: (0, 23, 0, 0, 0, 0, 0, 18, 0, 0, 0, 0)
s = 119: (0, 23, 0, 0, 0, 0, 0, 10, 0, 0, 0, 0)
s = 120: (0, 15, 0, 0, 0, 0, 0, 15, 0, 0, 0, 0)
s = 121: (0, 23, 0, 0, 0, 0, 0, 27, 0, 0, 0, 0)
s = 122: (0, 30, 0, 0, 0, 0, 0, 15, 0, 0, 0, 0)
s = 123: (0, 14, 0, 0, 0, 0, 0, 11, 0, 0, 0, 0)
s = 124: (0, 18, 0, 0, 0, 0, 0, 17, 0, 0, 0, 0)
s = 125: (0, 34, 0, 0, 0, 0, 0, 19, 0, 0, 0, 0)
s = 126: (0, 14, 0, 0, 0, 0, 0, 17, 0, 0, 0, 0)
s = 127: (0, 18, 0, 0, 0, 0, 0, 21, 0, 0, 0, 0)
s = 128: (0, 19, 0, 0, 0, 0, 0, 11, 0, 0, 0, 0)
s = 129: (0, 22, 0, 0, 0, 0, 0, 21, 0, 0, 0, 0)
s = 130: (0, 35, 0, 0, 0, 0, 0, 12, 0, 0, 0, 0)
s = 131: (0, 12, 0, 0, 0, 0, 0, 25, 0, 0, 0, 0)
s = 132: (0, 17, 0, 0, 0, 0, 0, 12, 0, 0, 0, 0)
s = 133: (0, 14, 0, 0, 0, 0, 0, 11, 0, 0, 0, 0)
s = 134: (0, 12, 0, 0, 0, 0, 0, 13, 0, 0, 0, 0)
s = 135: (0, 11, 0, 0, 0, 0, 0, 9, 0, 0, 0, 0)
s = 136: (0, 21, 0, 0, 0, 0, 0, 22, 0, 0, 0, 0)
s = 137: (0, 28, 0, 0, 0, 0, 0, 15, 0, 0, 0, 0)
s = 138: (0, 17, 0, 0, 0, 0, 0, 13, 0, 0, 0, 0)
s = 139: (0, 24, 0, 0, 0, 0, 0, 18, 0, 0, 0, 0)
s = 140: (0, 10, 0, 0, 0, 0, 0, 14, 0, 0, 0, 0)
s = 141: (0, 28, 0, 0, 0, 0, 0, 13, 0, 0, 0, 0)
s = 142: (0, 14, 0, 0, 0, 0, 0, 14, 0, 0, 0, 0)
s = 143: (0, 24, 0, 0, 0, 0, 0, 17, 0, 0, 0, 0)
s = 144: (0, 36, 0, 0, 0, 0, 0, 13, 0, 0, 0, 0)
s = 145: (0, 14, 0, 0, 0, 0, 0, 16, 0, 0, 0, 0)
s = 146: (0, 20, 0, 0, 0, 0, 0, 15, 0, 0, 0, 0)
s = 147: (0, 19, 0, 0, 0, 0, 0, 13, 0, 0, 0, 0)
s = 148: (0, 14, 0, 0, 0, 0, 0, 14, 0, 0, 0, 0)
s = 149: (0, 11, 0, 0, 0, 0, 0, 17, 0, 0, 0, 0)
s = 150: (0, 28, 0, 0, 0, 0, 0, 21, 0, 0, 0, 0)
s = 151: (0, 21, 0, 0, 0, 0, 0, 21, 0, 0, 0, 0)
s = 152: (0, 19, 0, 0, 0, 0, 0, 9, 0, 0, 0, 0)
s = 153: (0, 17, 0, 0, 0, 0, 0, 12, 0, 0, 0, 0)
s = 154: (0, 19, 0, 0, 0, 0, 0, 19, 0, 0, 0, 0)
s = 155: (0, 16, 0, 0, 0, 0, 0, 13, 0, 0, 0, 0)
s = 156: (0, 23, 0, 0, 0, 0, 0, 18, 0, 0, 0, 0)
s = 157: (0, 16, 0, 0, 0, 0, 0, 17, 0, 0, 0, 0)
s = 158: (0, 11, 0, 0, 0, 0, 0, 11, 0, 0, 0, 0)
s = 159: (0, 13, 0, 0, 0, 0, 0, 23, 0, 0, 0, 0)
s = 160: (0, 13, 0, 0, 0, 0, 0, 21, 0, 0, 0, 0)
s = 161: (0, 30, 0, 0, 0, 0, 0, 13, 0, 0, 0, 0)
s = 162: (0, 24, 0, 0, 0, 0, 0, 13, 0, 0, 0, 0)
s = 163: (0, 23, 0, 0, 0, 0, 0, 16, 0, 0, 0, 0)
s = 164: (0, 24, 0, 0, 0, 0, 0, 20, 0, 0, 0, 0)
s = 165: (0, 22, 0, 0, 0, 0, 0, 17, 0, 0, 0, 0)
s = 166: (0, 16, 0, 0, 0, 0, 0, 16, 0, 0, 0, 0)
s = 167: (0, 22, 0, 0, 0, 0, 0, 19, 0, 0, 0, 0)
s = 168: (0, 13, 0, 0, 0, 0, 0, 16, 0, 0, 0, 0)
s = 169: (0, 28, 0, 0, 0, 0, 0, 24, 0, 0, 0, 0)
s = 170: (0, 11, 0, 0, 0, 0, 0, 14, 0, 0, 0, 0)
s = 171: (0, 11, 0, 0, 0, 0, 0, 11, 0, 0, 0, 0)
s = 172: (0, 21, 0, 0, 0, 0, 0, 21, 0, 0, 0, 0)
s = 173: (0, 17, 0, 0, 0, 0, 0, 22, 0, 0, 0, 0)
s = 174: (0, 19, 0, 0, 0, 0, 0, 19, 0, 0, 0, 0)
s = 175: (0, 19, 0, 0, 0, 0, 0, 11, 0, 0, 0, 0)
s = 176: (0, 29, 0, 0, 0, 0, 0, 14, 0, 0, 0, 0)
s = 177: (0, 12, 0, 0, 0, 0, 0, 14, 0, 0, 0, 0)
s = 178: (0, 12, 0, 0, 0, 0, 0, 18, 0, 0, 0, 0)
s = 179: (0, 21, 0, 0, 0, 0, 0, 18, 0, 0, 0, 0)
s = 180: (0, 16, 0, 0, 0, 0, 0, 11, 0, 0, 0, 0)
s = 181: (0, 22, 0, 0, 0, 0, 0, 18, 0, 0, 0, 0)
s = 182: (0, 12, 0, 0, 0, 0, 0, 14, 0, 0, 0, 0)
s = 183: (0, 15, 0, 0, 0, 0, 0, 12, 0, 0, 0, 0)
s = 184: (0, 12, 0, 0, 0, 0, 0, 15, 0, 0, 0, 0)
s = 185: (0, 25, 0, 0, 0, 0, 0, 20, 0, 0, 0, 0)
s = 186: (0, 11, 0, 0, 0, 0, 0, 18, 0, 0, 0, 0)
s = 187: (0, 30, 0, 0, 0, 0, 0, 16, 0, 0, 0, 0)
s = 188: (0, 15, 0, 0, 0, 0, 0, 10, 0, 0, 0, 0)
s = 189: (0, 18, 0, 0, 0, 0, 0, 11, 0, 0, 0, 0)
s = 190: (0, 13, 0, 0, 0, 0, 0, 11, 0, 0, 0, 0)
s = 191: (0, 24, 0, 0, 0, 0, 0, 12, 0, 0, 0, 0)
s = 192: (0, 20, 0, 0, 0, 0, 0, 14, 0, 0, 0, 0)
s = 193: (0, 17, 0, 0, 0, 0, 0, 10, 0, 0, 0, 0)
s = 194: (0, 24, 0, 0, 0, 0, 0, 12, 0, 0, 0, 0)
s = 195: (0, 19, 0, 0, 0, 0, 0, 12, 0, 0, 0, 0)
s = 196: (0, 12, 0, 0, 0, 0, 0, 11, 0, 0, 0, 0)
s = 197: (0, 12, 0, 0, 0, 0, 0, 9, 0, 0, 0, 0)
s = 198: (0, 15, 0, 0, 0, 0, 0, 28, 0, 0, 0, 0)
s = 199: (0, 15, 0, 0, 0, 0, 0, 20, 0, 0, 0, 0)
s = 200: (0, 18, 0, 0, 0, 0, 0, 11, 0, 0, 0, 0)
------------------------------------------------------------------------
RESOURCE k = 3
s = 1: (0, 0, 62, 14, 68, 27, 56, 0, 20, 15, 13, 0)
s = 2: (0, 0, 41, 8, 30, 40, 59, 0, 16, 18, 21, 0)
s = 3: (0, 0, 55, 10, 54, 28, 51, 0, 19, 38, 21, 0)
s = 4: (0, 0, 40, 16, 49, 29, 53, 0, 20, 29, 16, 0)
s = 5: (0, 0, 61, 12, 31, 61, 64, 0, 23, 25, 21, 0)
s = 6: (0, 0, 54, 8, 71, 42, 58, 0, 21, 24, 13, 0)
s = 7: (0, 0, 40, 13, 38, 34, 58, 0, 25, 16, 14, 0)
s = 8: (0, 0, 46, 16, 44, 57, 103, 0, 19, 34, 16, 0)
s = 9: (0, 0, 71, 11, 66, 67, 78, 0, 15, 26, 15, 0)
s = 10: (0, 0, 60, 13, 38, 63, 36, 0, 22, 20, 14, 0)
s = 11: (0, 0, 32, 15, 50, 56, 67, 0, 24, 23, 12, 0)
s = 12: (0, 0, 71, 16, 67, 55, 66, 0, 24, 25, 22, 0)
s = 13: (0, 0, 44, 16, 70, 61, 97, 0, 27, 13, 14, 0)
s = 14: (0, 0, 45, 13, 44, 42, 42, 0, 21, 20, 17, 0)
s = 15: (0, 0, 27, 13, 42, 35, 42, 0, 19, 19, 11, 0)
s = 16: (0, 0, 51, 13, 42, 35, 78, 0, 19, 23, 23, 0)
s = 17: (0, 0, 36, 13, 53, 32, 58, 0, 29, 23, 16, 0)
s = 18: (0, 0, 48, 9, 43, 37, 51, 0, 25, 24, 28, 0)
s = 19: (0, 0, 54, 15, 43, 47, 50, 0, 18, 21, 18, 0)
s = 20: (0, 0, 64, 18, 53, 38, 91, 0, 23, 27, 15, 0)
s = 21: (0, 0, 38, 8, 56, 50, 40, 0, 30, 19, 29, 0)
s = 22: (0, 0, 56, 9, 54, 50, 55, 0, 23, 19, 24, 0)
s = 23: (0, 0, 54, 13, 69, 24, 69, 0, 17, 13, 23, 0)
s = 24: (0, 0, 48, 12, 35, 45, 105, 0, 18, 13, 15, 0)
s = 25: (0, 0, 62, 13, 74, 43, 75, 0, 19, 30, 19, 0)
s = 26: (0, 0, 26, 7, 43, 39, 56, 0, 37, 25, 15, 0)
s = 27: (0, 0, 68, 14, 35, 42, 59, 0, 21, 18, 19, 0)
s = 28: (0, 0, 33, 10, 39, 58, 88, 0, 16, 22, 22, 0)
s = 29: (0, 0, 32, 8, 46, 37, 56, 0, 15, 20, 16, 0)
s = 30: (0, 0, 46, 13, 43, 27, 57, 0, 28, 28, 25, 0)
s = 31: (0, 0, 30, 9, 43, 48, 37, 0, 29, 15, 15, 0)
s = 32: (0, 0, 49, 13, 65, 57, 62, 0, 27, 13, 20, 0)
s = 33: (0, 0, 71, 11, 41, 42, 63, 0, 25, 27, 13, 0)
s = 34: (0, 0, 76, 12, 43, 29, 76, 0, 19, 15, 15, 0)
s = 35: (0, 0, 34, 12, 44, 82, 71, 0, 12, 18, 18, 0)
s = 36: (0, 0, 69, 11, 42, 35, 55, 0, 36, 17, 17, 0)
s = 37: (0, 0, 61, 10, 43, 31, 75, 0, 24, 17, 22, 0)
s = 38: (0, 0, 52, 12, 29, 38, 77, 0, 24, 13, 25, 0)
s = 39: (0, 0, 56, 10, 40, 34, 44, 0, 26, 23, 16, 0)
s = 40: (0, 0, 31, 15, 38, 37, 93, 0, 14, 25, 22, 0)
s = 41: (0, 0, 46, 8, 58, 41, 79, 0, 22, 19, 17, 0)
s = 42: (0, 0, 64, 13, 65, 45, 80, 0, 13, 18, 24, 0)
s = 43: (0, 0, 47, 13, 62, 33, 82, 0, 29, 28, 16, 0)
s = 44: (0, 0, 39, 15, 41, 44, 82, 0, 23, 12, 29, 0)
s = 45: (0, 0, 59, 14, 66, 27, 49, 0, 21, 14, 17, 0)
s = 46: (0, 0, 62, 10, 40, 35, 64, 0, 19, 14, 17, 0)
s = 47: (0, 0, 60, 16, 43, 28, 83, 0, 18, 23, 29, 0)
s = 48: (0, 0, 46, 14, 31, 59, 131, 0, 16, 27, 12, 0)
s = 49: (0, 0, 34, 8, 45, 41, 82, 0, 21, 20, 20, 0)
s = 50: (0, 0, 63, 13, 46, 41, 49, 0, 33, 27, 21, 0)
s = 51: (0, 0, 35, 14, 26, 41, 92, 0, 17, 18, 30, 0)
s = 52: (0, 0, 47, 8, 37, 45, 64, 0, 21, 24, 27, 0)
s = 53: (0, 0, 44, 13, 55, 36, 58, 0, 20, 16, 11, 0)
s = 54: (0, 0, 48, 12, 64, 45, 83, 0, 31, 13, 19, 0)
s = 55: (0, 0, 37, 17, 59, 39, 47, 0, 20, 21, 20, 0)
s = 56: (0, 0, 55, 16, 39, 34, 79, 0, 18, 22, 19, 0)
s = 57: (0, 0, 73, 9, 44, 28, 50, 0, 24, 19, 11, 0)
s = 58: (0, 0, 83, 13, 75, 27, 88, 0, 13, 21, 17, 0)
s = 59: (0, 0, 41, 8, 35, 49, 52, 0, 20, 26, 15, 0)
s = 60: (0, 0, 28, 15, 43, 40, 54, 0, 29, 23, 11, 0)
s = 61: (0, 0, 37, 11, 60, 23, 55, 0, 12, 19, 25, 0)
s = 62: (0, 0, 44, 10, 72, 63, 70, 0, 26, 13, 18, 0)
s = 63: (0, 0, 60, 18, 26, 26, 96, 0, 20, 18, 19, 0)
s = 64: (0, 0, 52, 10, 43, 37, 83, 0, 11, 17, 23, 0)
s = 65: (0, 0, 53, 9, 50, 33, 132, 0, 19, 20, 33, 0)
s = 66: (0, 0, 61, 14, 48, 29, 70, 0, 25, 18, 20, 0)
s = 67: (0, 0, 36, 14, 66, 43, 85, 0, 35, 15, 17, 0)
s = 68: (0, 0, 47, 10, 49, 30, 119, 0, 23, 22, 18, 0)
s = 69: (0, 0, 51, 7, 60, 34, 61, 0, 21, 26, 24, 0)
s = 70: (0, 0, 53, 15, 39, 62, 85, 0, 18, 32, 21, 0)
s = 71: (0, 0, 50, 9, 84, 74, 44, 0, 12, 20, 21, 0)
s = 72: (0, 0, 57, 16, 47, 27, 51, 0, 12, 13, 16, 0)
s = 73: (0, 0, 39, 17, 51, 45, 71, 0, 17, 24, 21, 0)
s = 74: (0, 0, 42, 11, 52, 56, 40, 0, 18, 20, 23, 0)
s = 75: (0, 0, 33, 11, 35, 43, 71, 0, 27, 18, 26, 0)
s = 76: (0, 0, 70, 21, 55, 43, 104, 0, 30, 16, 19, 0)
s = 77: (0, 0, 69, 15, 55, 36, 96, 0, 17, 16, 15, 0)
s = 78: (0, 0, 43, 16, 39, 58, 101, 0, 17, 17, 27, 0)
s = 79: (0, 0, 56, 7, 40, 44, 65, 0, 18, 17, 10, 0)
s = 80: (0, 0, 60, 12, 33, 35, 79, 0, 27, 26, 10, 0)
s = 81: (0, 0, 52, 14, 56, 67, 101, 0, 20, 23, 14, 0)
s = 82: (0, 0, 52, 9, 66, 37, 60, 0, 15, 21, 14, 0)
s = 83: (0, 0, 61, 17, 48, 39, 52, 0, 21, 18, 12, 0)
s = 84: (0, 0, 64, 9, 27, 26, 88, 0, 30, 22, 17, 0)
s = 85: (0, 0, 79, 8, 53, 45, 86, 0, 21, 18, 12, 0)
s = 86: (0, 0, 26, 10, 82, 55, 85, 0, 30, 25, 16, 0)
s = 87: (0, 0, 57, 11, 44, 48, 63, 0, 14, 31, 16, 0)
s = 88: (0, 0, 50, 12, 50, 32, 74, 0, 19, 17, 23, 0)
s = 89: (0, 0, 64, 17, 26, 48, 57, 0, 30, 21, 24, 0)
s = 90: (0, 0, 38, 10, 28, 26, 56, 0, 15, 32, 18, 0)
s = 91: (0, 0, 30, 11, 65, 40, 41, 0, 27, 16, 18, 0)
s = 92: (0, 0, 44, 12, 63, 35, 78, 0, 14, 18, 26, 0)
s = 93: (0, 0, 57, 11, 59, 28, 74, 0, 15, 20, 14, 0)
s = 94: (0, 0, 73, 9, 30, 53, 44, 0, 22, 27, 22, 0)
s = 95: (0, 0, 50, 17, 82, 47, 65, 0, 37, 25, 18, 0)
s = 96: (0, 0, 45, 9, 32, 38, 60, 0, 28, 19, 22, 0)
s = 97: (0, 0, 32, 14, 30, 29, 98, 0, 37, 14, 15, 0)
s = 98: (0, 0, 31, 9, 66, 51, 67, 0, 22, 20, 19, 0)
s = 99: (0, 0, 81, 8, 43, 65, 46, 0, 34, 18, 13, 0)
s = 100: (0, 0, 41, 13, 69, 37, 44, 0, 29, 25, 20, 0)
s = 101: (0, 0, 64, 8, 53, 45, 89, 0, 16, 13, 20, 0)
s = 102: (0, 0, 28, 13, 51, 34, 69, 0, 32, 12, 19, 0)
s = 103: (0, 0, 48, 8, 28, 31, 108, 0, 25, 26, 20, 0)
s = 104: (0, 0, 38, 16, 41, 33, 70, 0, 20, 15, 12, 0)
s = 105: (0, 0, 73, 16, 51, 47, 89, 0, 29, 16, 24, 0)
s = 106: (0, 0, 45, 8, 37, 51, 71, 0, 28, 21, 10, 0)
s = 107: (0, 0, 27, 20, 34, 41, 96, 0, 13, 23, 20, 0)
s = 108: (0, 0, 46, 11, 77, 51, 109, 0, 29, 21, 13, 0)
s = 109: (0, 0, 65, 11, 54, 61, 78, 0, 23, 13, 12, 0)
s = 110: (0, 0, 36, 9, 51, 32, 65, 0, 13, 17, 24, 0)
s = 111: (0, 0, 63, 12, 36, 67, 57, 0, 14, 26, 21, 0)
s = 112: (0, 0, 35, 15, 36, 57, 81, 0, 17, 15, 11, 0)
s = 113: (0, 0, 43, 15, 50, 53, 40, 0, 15, 21, 22, 0)
s = 114: (0, 0, 31, 11, 35, 28, 81, 0, 19, 24, 20, 0)
s = 115: (0, 0, 32, 8, 36, 33, 43, 0, 21, 13, 18, 0)
s = 116: (0, 0, 63, 11, 27, 42, 80, 0, 19, 23, 20, 0)
s = 117: (0, 0, 36, 7, 53, 45, 62, 0, 19, 15, 14, 0)
s = 118: (0, 0, 61, 13, 27, 64, 59, 0, 21, 22, 13, 0)
s = 119: (0, 0, 52, 12, 53, 48, 64, 0, 28, 26, 10, 0)
s = 120: (0, 0, 46, 15, 80, 33, 104, 0, 22, 25, 15, 0)
s = 121: (0, 0, 43, 7, 33, 38, 93, 0, 21, 18, 18, 0)
s = 122: (0, 0, 56, 15, 47, 48, 52, 0, 32, 15, 19, 0)
s = 123: (0, 0, 67, 10, 63, 48, 94, 0, 28, 27, 22, 0)
s = 124: (0, 0, 47, 15, 29, 29, 51, 0, 15, 23, 20, 0)
s = 125: (0, 0, 35, 16, 45, 51, 84, 0, 29, 17, 22, 0)
s = 126: (0, 0, 31, 17, 63, 40, 51, 0, 18, 15, 22, 0)
s = 127: (0, 0, 65, 8, 38, 39, 69, 0, 25, 23, 14, 0)
s = 128: (0, 0, 54, 8, 50, 52, 51, 0, 20, 17, 20, 0)
s = 129: (0, 0, 30, 13, 33, 38, 92, 0, 25, 24, 21, 0)
s = 130: (0, 0, 47, 25, 84, 33, 79, 0, 16, 26, 10, 0)
s = 131: (0, 0, 41, 15, 37, 46, 62, 0, 25, 20, 21, 0)
s = 132: (0, 0, 53, 16, 40, 55, 71, 0, 30, 17, 17, 0)
s = 133: (0, 0, 27, 10, 74, 44, 126, 0, 14, 16, 18, 0)
s = 134: (0, 0, 42, 21, 35, 43, 52, 0, 19, 24, 11, 0)
s = 135: (0, 0, 37, 9, 48, 40, 50, 0, 17, 17, 16, 0)
s = 136: (0, 0, 46, 12, 53, 30, 52, 0, 29, 14, 18, 0)
s = 137: (0, 0, 33, 7, 60, 30, 113, 0, 28, 15, 18, 0)
s = 138: (0, 0, 55, 18, 46, 32, 84, 0, 17, 32, 15, 0)
s = 139: (0, 0, 61, 12, 36, 39, 100, 0, 17, 20, 17, 0)
s = 140: (0, 0, 55, 11, 32, 32, 59, 0, 14, 21, 19, 0)
s = 141: (0, 0, 28, 8, 67, 42, 69, 0, 20, 19, 14, 0)
s = 142: (0, 0, 63, 12, 30, 33, 37, 0, 14, 18, 22, 0)
s = 143: (0, 0, 76, 17, 59, 46, 78, 0, 17, 12, 18, 0)
s = 144: (0, 0, 42, 14, 61, 35, 41, 0, 25, 12, 19, 0)
s = 145: (0, 0, 28, 10, 41, 51, 41, 0, 27, 25, 13, 0)
s = 146: (0, 0, 45, 10, 46, 49, 64, 0, 20, 20, 10, 0)
s = 147: (0, 0, 52, 10, 78, 54, 90, 0, 24, 22, 19, 0)
s = 148: (0, 0, 35, 16, 50, 29, 88, 0, 16, 16, 20, 0)
s = 149: (0, 0, 60, 17, 34, 30, 42, 0, 17, 20, 17, 0)
s = 150: (0, 0, 67, 20, 29, 42, 49, 0, 23, 18, 31, 0)
s = 151: (0, 0, 65, 13, 47, 30, 82, 0, 28, 17, 19, 0)
s = 152: (0, 0, 37, 9, 31, 34, 47, 0, 27, 20, 13, 0)
s = 153: (0, 0, 60, 9, 44, 23, 52, 0, 23, 20, 19, 0)
s = 154: (0, 0, 59, 15, 34, 46, 66, 0, 12, 15, 16, 0)
s = 155: (0, 0, 38, 11, 35, 47, 78, 0, 20, 16, 25, 0)
s = 156: (0, 0, 47, 13, 32, 32, 104, 0, 23, 21, 15, 0)
s = 157: (0, 0, 41, 9, 53, 52, 55, 0, 15, 26, 13, 0)
s = 158: (0, 0, 50, 12, 28, 58, 58, 0, 25, 14, 14, 0)
s = 159: (0, 0, 56, 17, 31, 30, 116, 0, 30, 19, 21, 0)
s = 160: (0, 0, 39, 13, 41, 48, 66, 0, 23, 25, 23, 0)
s = 161: (0, 0, 43, 18, 32, 40, 68, 0, 12, 18, 21, 0)
s = 162: (0, 0, 80, 16, 57, 34, 80, 0, 22, 18, 19, 0)
s = 163: (0, 0, 78, 12, 78, 55, 108, 0, 22, 16, 16, 0)
s = 164: (0, 0, 28, 12, 27, 56, 74, 0, 17, 14, 14, 0)
s = 165: (0, 0, 53, 20, 42, 30, 64, 0, 18, 30, 12, 0)
s = 166: (0, 0, 56, 18, 47, 34, 54, 0, 22, 23, 27, 0)
s = 167: (0, 0, 90, 20, 46, 54, 54, 0, 35, 23, 25, 0)
s = 168: (0, 0, 34, 14, 54, 43, 83, 0, 23, 29, 22, 0)
s = 169: (0, 0, 36, 7, 57, 38, 64, 0, 22, 15, 16, 0)
s = 170: (0, 0, 39, 11, 36, 24, 55, 0, 17, 14, 27, 0)
s = 171: (0, 0, 49, 10, 50, 38, 71, 0, 20, 32, 21, 0)
s = 172: (0, 0, 75, 10, 51, 50, 82, 0, 25, 16, 15, 0)
s = 173: (0, 0, 39, 10, 45, 25, 96, 0, 21, 24, 21, 0)
s = 174: (0, 0, 47, 15, 40, 47, 98, 0, 22, 29, 23, 0)
s = 175: (0, 0, 26, 8, 32, 56, 79, 0, 17, 20, 14, 0)
s = 176: (0, 0, 50, 19, 35, 30, 73, 0, 19, 32, 17, 0)
s = 177: (0, 0, 41, 18, 58, 65, 77, 0, 18, 22, 19, 0)
s = 178: (0, 0, 39, 10, 50, 27, 92, 0, 19, 21, 13, 0)
s = 179: (0, 0, 38, 13, 57, 32, 70, 0, 28, 20, 13, 0)
s = 180: (0, 0, 62, 10, 39, 35, 62, 0, 24, 14, 14, 0)
s = 181: (0, 0, 44, 12, 52, 28, 98, 0, 26, 15, 25, 0)
s = 182: (0, 0, 43, 22, 41, 33, 100, 0, 14, 14, 13, 0)
s = 183: (0, 0, 33, 13, 72, 41, 75, 0, 16, 20, 18, 0)
s = 184: (0, 0, 41, 10, 78, 25, 38, 0, 23, 16, 12, 0)
s = 185: (0, 0, 47, 11, 46, 42, 55, 0, 39, 15, 19, 0)
s = 186: (0, 0, 47, 17, 39, 33, 101, 0, 24, 12, 23, 0)
s = 187: (0, 0, 47, 10, 32, 35, 65, 0, 21, 14, 13, 0)
s = 188: (0, 0, 27, 19, 45, 47, 64, 0, 15, 26, 13, 0)
s = 189: (0, 0, 42, 12, 45, 40, 88, 0, 21, 27, 24, 0)
s = 190: (0, 0, 51, 20, 33, 43, 61, 0, 31, 17, 16, 0)
s = 191: (0, 0, 51, 11, 33, 38, 90, 0, 17, 15, 18, 0)
s = 192: (0, 0, 48, 17, 42, 63, 112, 0, 17, 22, 20, 0)
s = 193: (0, 0, 35, 18, 33, 42, 56, 0, 22, 16, 25, 0)
s = 194: (0, 0, 61, 15, 43, 30, 50, 0, 16, 19, 10, 0)
s = 195: (0, 0, 49, 12, 34, 32, 44, 0, 24, 16, 14, 0)
s = 196: (0, 0, 43, 12, 51, 45, 55, 0, 25, 21, 25, 0)
s = 197: (0, 0, 44, 9, 68, 58, 93, 0, 14, 24, 11, 0)
s = 198: (0, 0, 54, 11, 67, 31, 81, 0, 11, 25, 17, 0)
s = 199: (0, 0, 44, 12, 33, 54, 116, 0, 22, 14, 20, 0)
s = 200: (0, 0, 68, 14, 40, 29, 66, 0, 20, 24, 17, 0)
************************************************************************
ES/LS-VALUES:
jobnr.   ES(i)    LS(i)
------------------------------------------------------------------------
  0        0        0
  1        0       48
  2        0       65
  3        0       45
  4        4       55
  5        6       52
  6       19       66
  7       19       74
  8        9       78
  9       32       80
 10       22       78
 11       35       84
************************************************************************
BIG-M-VALUES:
M1 = 60, M2 = 351
************************************************************************
